local_stuff/loop_inv_stuff/loop_inv_backup/repo/boogie/82.out
STDOUT:
boogie/82.bpl(28,9): error: "{" expected
boogie/82.bpl(29,9): error: "{" expected
boogie/82.bpl(31,1): error: "}" expected
3 parse errors detected in boogie/82.bpl


STDERR:
